HUN,8,6,119
1,22,2,28,3,27,4,24,0,22,5,27
1,22,0,30,2,30,5,21,4,21,3,21
3,24,4,28,2,24,1,23,5,22,0,22
1,30,3,26,0,25,5,25,4,24,2,27
2,22,3,21,4,23,1,27,0,24,5,25
2,22,0,29,5,22,3,29,4,21,1,29
0,25,2,29,4,30,5,23,1,28,3,30
0,27,2,21,3,25,5,29,1,25,4,28
